NAME : 17.79556.tour
COMMENT : Length = 79556
COMMENT : Found by LKH-3 [Keld Helsgaun] Thu Jun 19 18:16:25 2025
TYPE : TOUR
DIMENSION : 100
TOUR_SECTION
1
13
50
82
75
61
69
52
7
88
18
24
11
81
16
4
66
89
94
51
25
45
48
72
6
31
67
85
29
44
80
43
35
30
5
10
99
17
37
63
71
91
27
14
84
38
32
90
77
9
53
79
73
96
93
40
64
34
55
76
58
49
86
60
74
33
39
42
87
12
36
59
21
3
92
100
26
2
8
97
83
56
46
41
19
28
23
65
68
95
57
15
20
78
70
62
54
47
98
22
-1
EOF
